
Log started (V22.1.1.0) Sun Jan 28 23:55:15 2024


Selected objective sense:  MINIMIZE
Selected objective  name:  OBJ
Selected RHS        name:  RHS
Selected bound      name:  BND

Problem 'debug.mps' read.
Read time = 0.02 sec. (3.48 ticks)
Version identifier: 22.1.1.0 | 2022-11-28 | 9160aff4d
Tried aggregator 3 times.
MIP Presolve eliminated 3245 rows and 383 columns.
MIP Presolve modified 5289 coefficients.
Aggregator did 5 substitutions.
Reduced MIP has 2393 rows, 1512 columns, and 21917 nonzeros.
Reduced MIP has 894 binaries, 0 generals, 0 SOSs, and 0 indicators.
Presolve time = 0.03 sec. (22.09 ticks)
Found incumbent of value 0.000000 after 0.04 sec. (35.44 ticks)
Probing fixed 317 vars, tightened 1322 bounds.
Probing time = 0.08 sec. (118.56 ticks)
Cover probing fixed 0 vars, tightened 234 bounds.
Tried aggregator 2 times.
MIP Presolve eliminated 696 rows and 384 columns.
MIP Presolve added 2 rows and 0 columns.
MIP Presolve modified 1346 coefficients.
Aggregator did 9 substitutions.
Reduced MIP has 1690 rows, 1119 columns, and 20173 nonzeros.
Reduced MIP has 510 binaries, 604 generals, 0 SOSs, and 0 indicators.
Presolve time = 0.01 sec. (24.54 ticks)
Probing fixed 5 vars, tightened 31 bounds.
Probing time = 0.05 sec. (78.51 ticks)
Cover probing fixed 0 vars, tightened 77 bounds.
Tried aggregator 1 time.
Detecting symmetries...
MIP Presolve eliminated 12 rows and 17 columns.
MIP Presolve modified 148 coefficients.
Reduced MIP has 1678 rows, 1102 columns, and 19606 nonzeros.
Reduced MIP has 493 binaries, 604 generals, 0 SOSs, and 0 indicators.
Presolve time = 0.01 sec. (13.22 ticks)
Probing fixed 0 vars, tightened 45 bounds.
Probing time = 0.05 sec. (66.11 ticks)
Clique table members: 12412.
MIP emphasis: balance optimality and feasibility.
MIP search method: dynamic search.
Parallel mode: deterministic, using up to 8 threads.
Root relaxation solution time = 0.00 sec. (6.49 ticks)

        Nodes                                         Cuts/
   Node  Left     Objective  IInf  Best Integer    Best Bound    ItCnt     Gap

*     0+    0                            0.0000      -50.0000              --- 
*     0     0      integral     0      -50.0000      -50.0000       12    0.00%
Elapsed time = 0.28 sec. (405.29 ticks, tree = 0.00 MB, solutions = 2)

Root node processing (before b&c):
  Real time             =    0.28 sec. (405.43 ticks)
Parallel b&c, 8 threads:
  Real time             =    0.00 sec. (0.00 ticks)
  Sync time (average)   =    0.00 sec.
  Wait time (average)   =    0.00 sec.
                          ------------
Total (root+branch&cut) =    0.28 sec. (405.43 ticks)

Solution pool: 2 solutions saved.

MIP - Integer optimal solution:  Objective = -5.0000000000e+01
Solution time =    0.28 sec.  Iterations = 12  Nodes = 0
Deterministic time = 405.43 ticks  (1432.83 ticks/sec)

MIP - Integer optimal solution:  Objective = -5.0000000000e+01
Minimize
 OBJ: - l_50_111 - l_50_119 - l_50_129 - l_50_136 - l_50_144 - l_50_156
      - l_50_157 - l_50_166 - l_50_171 - l_50_181 - l_50_182 - l_50_184
      - l_50_185 - l_50_193 - l_50_215 - l_50_22 - l_50_220 - l_50_221
      - l_50_227 - l_50_235 - l_50_236 - l_50_239 - l_50_255 - l_50_256
      - l_50_264 - l_50_28 - l_50_283 - l_50_285 - l_50_29 - l_50_303
      - l_50_318 - l_50_319 - l_50_320 - l_50_326 - l_50_331 - l_50_336
      - l_50_342 - l_50_38 - l_50_42 - l_50_51 - l_50_53 - l_50_56 - l_50_57
      - l_50_60 - l_50_84 - l_50_85 - l_50_91 - l_50_97 - l_50_98 - l_50_99
Solution pool: 2 solutions saved.
Mean objective = -2.5000000000e+01


                                             Change from
Solution Name       Objective Value            Incumbent
p3                         -50.0000                0.00%
p1                           0.0000               10.42%

Incumbent solution
Variable Name              Solution Value
I_studytime_2__=                 1.000000
I_studytime_3__=                 1.000000
I_studytime_4__=                 1.000000
R_activities_yes                 1.000000
R_reason_course                  1.000000
R_studytime__=                   1.000100
l_10_22                          1.000000
l_10_28                          1.000000
l_10_29                          1.000000
l_10_38                          1.000000
l_10_42                          1.000000
l_10_51                          1.000000
l_10_53                          1.000000
l_10_56                          1.000000
l_10_57                          1.000000
l_50_111                         1.000000
l_50_119                         1.000000
l_50_129                         1.000000
l_50_136                         1.000000
l_50_144                         1.000000
l_50_156                         1.000000
l_50_157                         1.000000
l_50_166                         1.000000
l_50_171                         1.000000
l_50_181                         1.000000
l_50_182                         1.000000
l_50_184                         1.000000
l_50_185                         1.000000
l_50_193                         1.000000
l_50_215                         1.000000
l_50_22                          1.000000
l_50_220                         1.000000
l_50_221                         1.000000
l_50_227                         1.000000
l_50_235                         1.000000
l_50_236                         1.000000
l_50_239                         1.000000
l_50_255                         1.000000
l_50_256                         1.000000
l_50_264                         1.000000
l_50_28                          1.000000
l_50_283                         1.000000
l_50_285                         1.000000
l_50_29                          1.000000
l_50_303                         1.000000
l_50_318                         1.000000
l_50_319                         1.000000
l_50_320                         1.000000
l_50_326                         1.000000
l_50_331                         1.000000
l_50_336                         1.000000
l_50_342                         1.000000
l_50_38                          1.000000
l_50_42                          1.000000
l_50_51                          1.000000
l_50_53                          1.000000
l_50_56                          1.000000
l_50_57                          1.000000
l_50_60                          1.000000
l_50_84                          1.000000
l_50_85                          1.000000
l_50_91                          1.000000
l_50_97                          1.000000
l_50_98                          1.000000
l_50_99                          1.000000
max_address_R_50               100.000000
r_15                             1.000000
r_2                              1.000000
r_27                             1.000000
s_0                            619.000000
s_1                            619.000000
s_10                           619.000000
s_100                          635.000000
s_101                          635.000000
s_102                          635.000000
s_103                          635.000000
s_104                          635.000000
s_105                          635.000000
s_106                          635.000000
s_107                          635.000000
s_108                          635.000000
s_109                          635.000000
s_11                           619.000000
s_110                          635.000000
s_111                           16.000000
s_112                          636.000000
s_113                          636.000000
s_114                          636.000000
s_115                          636.000000
s_116                          636.000000
s_117                          636.000000
s_118                          636.000000
s_119                           17.000000
s_12                           619.000000
s_120                          637.000000
s_121                          637.000000
s_122                          637.000000
s_123                          637.000000
s_124                          637.000000
s_125                          637.000000
s_126                          637.000000
s_127                          637.000000
s_128                          637.000000
s_129                           18.000000
s_13                           619.000000
s_130                          638.000000
s_131                          638.000000
s_132                          638.000000
s_133                          638.000000
s_134                          638.000000
s_135                          638.000000
s_136                           19.000000
s_137                          639.000000
s_138                          639.000000
s_139                          639.000000
s_14                           619.000000
s_140                          639.000000
s_141                          639.000000
s_142                          639.000000
s_143                          639.000000
s_144                           20.000000
s_145                          640.000000
s_146                          640.000000
s_147                          640.000000
s_148                          640.000000
s_149                          640.000000
s_15                           619.000000
s_150                          640.000000
s_151                          640.000000
s_152                          640.000000
s_153                          640.000000
s_154                          640.000000
s_155                          640.000000
s_156                           21.000000
s_157                           22.000000
s_158                          642.000000
s_159                          642.000000
s_16                           619.000000
s_160                          642.000000
s_161                          642.000000
s_162                          642.000000
s_163                          642.000000
s_164                          642.000000
s_165                          642.000000
s_166                           23.000000
s_167                          643.000000
s_168                          643.000000
s_169                          643.000000
s_17                           619.000000
s_170                          643.000000
s_171                           24.000000
s_172                          644.000000
s_173                          644.000000
s_174                          644.000000
s_175                          644.000000
s_176                          644.000000
s_177                          644.000000
s_178                          644.000000
s_179                          644.000000
s_18                           619.000000
s_180                          644.000000
s_181                           25.000000
s_182                           26.000000
s_183                          646.000000
s_184                           27.000000
s_185                           28.000000
s_186                          648.000000
s_187                          648.000000
s_188                          648.000000
s_189                          648.000000
s_19                           619.000000
s_190                          648.000000
s_191                          648.000000
s_192                          648.000000
s_193                           29.000000
s_194                          649.000000
s_195                          649.000000
s_196                          649.000000
s_197                          649.000000
s_198                          649.000000
s_199                          649.000000
s_2                            619.000000
s_20                           619.000000
s_200                          649.000000
s_201                          649.000000
s_202                          649.000000
s_203                          649.000000
s_204                          649.000000
s_205                          649.000000
s_206                          649.000000
s_207                          649.000000
s_208                          649.000000
s_209                          649.000000
s_21                           619.000000
s_210                          649.000000
s_211                          649.000000
s_212                          649.000000
s_213                          649.000000
s_214                          649.000000
s_215                           30.000000
s_216                          650.000000
s_217                          650.000000
s_218                          650.000000
s_219                          650.000000
s_220                           31.000000
s_221                           32.000000
s_222                          652.000000
s_223                          652.000000
s_224                          652.000000
s_225                          652.000000
s_226                          652.000000
s_227                           33.000000
s_228                          653.000000
s_229                          653.000000
s_23                           620.000000
s_230                          653.000000
s_231                          653.000000
s_232                          653.000000
s_233                          653.000000
s_234                          653.000000
s_235                           34.000000
s_236                           35.000000
s_237                          655.000000
s_238                          655.000000
s_239                           36.000000
s_24                           620.000000
s_240                          656.000000
s_241                          656.000000
s_242                          656.000000
s_243                          656.000000
s_244                          656.000000
s_245                          656.000000
s_246                          656.000000
s_247                          656.000000
s_248                          656.000000
s_249                          656.000000
s_25                           620.000000
s_250                          656.000000
s_251                          656.000000
s_252                          656.000000
s_253                          656.000000
s_254                          656.000000
s_255                           37.000000
s_256                           38.000000
s_257                          658.000000
s_258                          658.000000
s_259                          658.000000
s_26                           620.000000
s_260                          658.000000
s_261                          658.000000
s_262                          658.000000
s_263                          658.000000
s_264                           39.000000
s_265                          659.000000
s_266                          659.000000
s_267                          659.000000
s_268                          659.000000
s_269                          659.000000
s_27                           620.000000
s_270                          659.000000
s_271                          659.000000
s_272                          659.000000
s_273                          659.000000
s_274                          659.000000
s_275                          659.000000
s_276                          659.000000
s_277                          659.000000
s_278                          659.000000
s_279                          659.000000
s_28                             1.000000
s_280                          659.000000
s_281                          659.000000
s_282                          659.000000
s_283                           40.000000
s_284                          660.000000
s_285                           41.000000
s_286                          661.000000
s_287                          661.000000
s_288                          661.000000
s_289                          661.000000
s_29                             2.000000
s_290                          661.000000
s_291                          661.000000
s_292                          661.000000
s_293                          661.000000
s_294                          661.000000
s_295                          661.000000
s_296                          661.000000
s_297                          661.000000
s_298                          661.000000
s_299                          661.000000
s_3                            619.000000
s_30                           622.000000
s_300                          661.000000
s_301                          661.000000
s_302                          661.000000
s_303                           42.000000
s_304                          662.000000
s_305                          662.000000
s_306                          662.000000
s_307                          662.000000
s_308                          662.000000
s_309                          662.000000
s_31                           622.000000
s_310                          662.000000
s_311                          662.000000
s_312                          662.000000
s_313                          662.000000
s_314                          662.000000
s_315                          662.000000
s_316                          662.000000
s_317                          662.000000
s_318                           43.000000
s_319                           44.000000
s_32                           622.000000
s_320                           45.000000
s_321                          665.000000
s_322                          665.000000
s_323                          665.000000
s_324                          665.000000
s_325                          665.000000
s_326                           46.000000
s_327                          666.000000
s_328                          666.000000
s_329                          666.000000
s_33                           622.000000
s_330                          666.000000
s_331                           47.000000
s_332                          667.000000
s_333                          667.000000
s_334                          667.000000
s_335                          667.000000
s_336                           48.000000
s_337                          668.000000
s_338                          668.000000
s_339                          668.000000
s_34                           622.000000
s_340                          668.000000
s_341                          668.000000
s_342                           49.000000
s_343                          669.000000
s_344                          669.000000
s_345                          669.000000
s_346                          669.000000
s_347                          669.000000
s_348                          669.000000
s_349                          669.000000
s_35                           622.000000
s_350                          669.000000
s_351                          669.000000
s_352                          669.000000
s_353                          669.000000
s_354                           50.000000
s_355                           51.000000
s_356                          671.000000
s_357                          671.000000
s_358                          671.000000
s_359                          671.000000
s_36                           622.000000
s_360                          671.000000
s_361                           52.000000
s_362                          672.000000
s_363                          672.000000
s_364                          672.000000
s_365                          672.000000
s_366                          672.000000
s_367                          672.000000
s_368                          672.000000
s_369                          672.000000
s_37                           622.000000
s_370                           53.000000
s_371                          673.000000
s_372                          673.000000
s_373                          673.000000
s_374                          673.000000
s_375                          673.000000
s_376                          673.000000
s_377                          673.000000
s_378                           54.000000
s_379                          674.000000
s_38                             3.000000
s_380                          674.000000
s_381                          674.000000
s_382                          674.000000
s_383                          674.000000
s_384                          674.000000
s_385                          674.000000
s_386                          674.000000
s_387                          674.000000
s_388                          674.000000
s_389                          674.000000
s_39                           623.000000
s_390                           55.000000
s_391                          675.000000
s_392                          675.000000
s_393                          675.000000
s_394                          675.000000
s_395                          675.000000
s_396                          675.000000
s_397                          675.000000
s_398                          675.000000
s_399                           56.000000
s_4                            619.000000
s_40                           623.000000
s_400                          676.000000
s_401                          676.000000
s_402                          676.000000
s_403                          676.000000
s_404                          676.000000
s_405                          676.000000
s_406                           57.000000
s_407                          677.000000
s_408                          677.000000
s_409                           58.000000
s_41                           623.000000
s_410                          678.000000
s_411                          678.000000
s_412                          678.000000
s_413                           59.000000
s_414                          679.000000
s_415                          679.000000
s_416                          679.000000
s_417                          679.000000
s_418                          679.000000
s_419                          679.000000
s_42                             4.000000
s_420                          679.000000
s_421                          679.000000
s_422                          679.000000
s_423                          679.000000
s_424                          679.000000
s_425                          679.000000
s_426                          679.000000
s_427                          679.000000
s_428                          679.000000
s_429                          679.000000
s_43                           624.000000
s_430                          679.000000
s_431                          679.000000
s_432                          679.000000
s_433                          679.000000
s_434                          679.000000
s_435                          679.000000
s_436                          679.000000
s_437                          679.000000
s_438                          679.000000
s_439                          679.000000
s_44                           624.000000
s_440                          679.000000
s_441                          679.000000
s_442                          679.000000
s_443                          679.000000
s_444                          679.000000
s_445                          679.000000
s_446                          679.000000
s_447                          679.000000
s_448                          679.000000
s_449                          679.000000
s_45                           624.000000
s_450                          679.000000
s_451                          679.000000
s_452                          679.000000
s_453                           60.000000
s_454                          680.000000
s_455                          680.000000
s_456                          680.000000
s_457                          680.000000
s_458                          680.000000
s_459                          680.000000
s_46                           624.000000
s_460                          680.000000
s_461                          680.000000
s_462                          680.000000
s_463                          680.000000
s_464                          680.000000
s_465                          680.000000
s_466                          680.000000
s_467                          680.000000
s_468                          680.000000
s_469                          680.000000
s_47                           624.000000
s_470                          680.000000
s_471                          680.000000
s_472                          680.000000
s_473                          680.000000
s_474                          680.000000
s_475                          680.000000
s_476                          680.000000
s_477                          680.000000
s_478                          680.000000
s_479                          680.000000
s_48                           624.000000
s_480                          680.000000
s_481                          680.000000
s_482                          680.000000
s_483                           61.000000
s_484                          681.000000
s_485                          681.000000
s_486                          681.000000
s_487                          681.000000
s_488                          681.000000
s_489                          681.000000
s_49                           624.000000
s_490                          681.000000
s_491                          681.000000
s_492                          681.000000
s_493                           62.000000
s_494                          682.000000
s_495                           63.000000
s_496                          683.000000
s_497                          683.000000
s_498                           64.000000
s_499                           65.000000
s_5                            619.000000
s_50                           624.000000
s_500                          685.000000
s_501                          685.000000
s_502                          685.000000
s_503                          685.000000
s_504                          685.000000
s_505                          685.000000
s_506                          685.000000
s_507                          685.000000
s_508                          685.000000
s_509                          685.000000
s_51                             5.000000
s_510                          685.000000
s_511                          685.000000
s_512                           66.000000
s_513                          686.000000
s_514                          686.000000
s_515                          686.000000
s_516                          686.000000
s_517                          686.000000
s_518                          686.000000
s_519                          686.000000
s_52                           625.000000
s_520                           67.000000
s_521                          687.000000
s_522                          687.000000
s_523                          687.000000
s_524                           68.000000
s_525                          688.000000
s_526                          688.000000
s_527                           69.000000
s_528                          689.000000
s_529                          689.000000
s_53                             6.000000
s_530                          689.000000
s_531                          689.000000
s_532                          689.000000
s_533                          689.000000
s_534                          689.000000
s_535                          689.000000
s_536                          689.000000
s_537                           70.000000
s_538                          690.000000
s_539                          690.000000
s_54                           626.000000
s_540                          690.000000
s_541                          690.000000
s_542                          690.000000
s_543                          690.000000
s_544                          690.000000
s_545                          690.000000
s_546                          690.000000
s_547                          690.000000
s_548                          690.000000
s_549                          690.000000
s_55                           626.000000
s_550                           71.000000
s_551                          691.000000
s_552                          691.000000
s_553                          691.000000
s_554                           72.000000
s_555                           73.000000
s_556                          693.000000
s_557                          693.000000
s_558                          693.000000
s_559                          693.000000
s_56                             7.000000
s_560                          693.000000
s_561                          693.000000
s_562                          693.000000
s_563                          693.000000
s_564                          693.000000
s_565                          693.000000
s_566                          693.000000
s_567                          693.000000
s_568                          693.000000
s_569                           74.000000
s_57                             8.000000
s_570                          694.000000
s_571                          694.000000
s_572                          694.000000
s_573                           75.000000
s_574                          695.000000
s_575                           76.000000
s_576                          696.000000
s_577                          696.000000
s_578                          696.000000
s_579                          696.000000
s_58                           628.000000
s_580                          696.000000
s_581                          696.000000
s_582                          696.000000
s_583                          696.000000
s_584                          696.000000
s_585                          696.000000
s_586                          696.000000
s_587                           77.000000
s_588                          697.000000
s_589                          697.000000
s_59                           628.000000
s_590                          697.000000
s_591                          697.000000
s_592                          697.000000
s_593                          697.000000
s_594                          697.000000
s_595                          697.000000
s_596                           78.000000
s_597                          698.000000
s_598                          698.000000
s_599                          698.000000
s_6                            619.000000
s_60                             9.000000
s_600                          698.000000
s_601                          698.000000
s_602                          698.000000
s_603                          698.000000
s_604                          698.000000
s_605                          698.000000
s_606                          698.000000
s_607                          698.000000
s_608                          698.000000
s_609                          698.000000
s_61                           629.000000
s_610                          698.000000
s_611                          698.000000
s_612                          698.000000
s_613                          698.000000
s_614                          698.000000
s_615                          698.000000
s_616                          698.000000
s_617                          698.000000
s_62                           629.000000
s_63                           629.000000
s_64                           629.000000
s_65                           629.000000
s_66                           629.000000
s_67                           629.000000
s_68                           629.000000
s_69                           629.000000
s_7                            619.000000
s_70                           629.000000
s_71                           629.000000
s_72                           629.000000
s_73                           629.000000
s_74                           629.000000
s_75                           629.000000
s_76                           629.000000
s_77                           629.000000
s_78                           629.000000
s_79                           629.000000
s_8                            619.000000
s_80                           629.000000
s_81                           629.000000
s_82                           629.000000
s_83                           629.000000
s_84                            10.000000
s_85                            11.000000
s_86                           631.000000
s_87                           631.000000
s_88                           631.000000
s_89                           631.000000
s_9                            619.000000
s_90                           631.000000
s_91                            12.000000
s_92                           632.000000
s_93                           632.000000
s_94                           632.000000
s_95                           632.000000
s_96                           632.000000
s_97                            13.000000
s_98                            14.000000
s_99                            15.000000
All other variables in the range 1-1900 are 0.
